multiobj/solutions/Ter.6.2.1.00.2.out
1 2
5 3 0 2 4 1 
6417124 6417124 
